c generated by sgen
p cnf 81 172
-2 -3 -4 0
-1 -3 -4 0
-1 -2 -4 0
-1 -2 -3 0
-6 -7 -8 0
-5 -7 -8 0
-5 -6 -8 0
-5 -6 -7 0
-10 -11 -12 0
-9 -11 -12 0
-9 -10 -12 0
-9 -10 -11 0
-14 -15 -16 0
-13 -15 -16 0
-13 -14 -16 0
-13 -14 -15 0
-18 -19 -20 0
-17 -19 -20 0
-17 -18 -20 0
-17 -18 -19 0
-22 -23 -24 0
-21 -23 -24 0
-21 -22 -24 0
-21 -22 -23 0
-26 -27 -28 0
-25 -27 -28 0
-25 -26 -28 0
-25 -26 -27 0
-30 -31 -32 0
-29 -31 -32 0
-29 -30 -32 0
-29 -30 -31 0
-34 -35 -36 0
-33 -35 -36 0
-33 -34 -36 0
-33 -34 -35 0
-38 -39 -40 0
-37 -39 -40 0
-37 -38 -40 0
-37 -38 -39 0
-42 -43 -44 0
-41 -43 -44 0
-41 -42 -44 0
-41 -42 -43 0
-46 -47 -48 0
-45 -47 -48 0
-45 -46 -48 0
-45 -46 -47 0
-50 -51 -52 0
-49 -51 -52 0
-49 -50 -52 0
-49 -50 -51 0
-54 -55 -56 0
-53 -55 -56 0
-53 -54 -56 0
-53 -54 -55 0
-58 -59 -60 0
-57 -59 -60 0
-57 -58 -60 0
-57 -58 -59 0
-62 -63 -64 0
-61 -63 -64 0
-61 -62 -64 0
-61 -62 -63 0
-66 -67 -68 0
-65 -67 -68 0
-65 -66 -68 0
-65 -66 -67 0
-70 -71 -72 0
-69 -71 -72 0
-69 -70 -72 0
-69 -70 -71 0
-74 -75 -76 0
-73 -75 -76 0
-73 -74 -76 0
-73 -74 -75 0
-77 -78 -79 0
-77 -78 -80 0
-77 -78 -81 0
-77 -79 -80 0
-77 -79 -81 0
-77 -80 -81 0
-78 -79 -80 0
-78 -79 -81 0
-78 -80 -81 0
-79 -80 -81 0
23 79 75 0
59 79 75 0
59 23 75 0
59 23 79 0
36 49 25 0
17 49 25 0
17 36 25 0
17 36 49 0
30 28 16 0
70 28 16 0
70 30 16 0
70 30 28 0
37 42 26 0
9 42 26 0
9 37 26 0
9 37 42 0
53 62 81 0
2 62 81 0
2 53 81 0
2 53 62 0
68 48 1 0
40 48 1 0
40 68 1 0
40 68 48 0
80 39 54 0
19 39 54 0
19 80 54 0
19 80 39 0
21 10 13 0
3 10 13 0
3 21 13 0
3 21 10 0
60 35 38 0
15 35 38 0
15 60 38 0
15 60 35 0
63 57 45 0
44 57 45 0
44 63 45 0
44 63 57 0
27 8 51 0
58 8 51 0
58 27 51 0
58 27 8 0
71 47 73 0
12 47 73 0
12 71 73 0
12 71 47 0
64 5 14 0
67 5 14 0
67 64 14 0
67 64 5 0
50 24 66 0
55 24 66 0
55 50 66 0
55 50 24 0
78 34 46 0
7 34 46 0
7 78 46 0
7 78 34 0
61 18 72 0
76 18 72 0
76 61 72 0
76 61 18 0
11 29 77 0
65 29 77 0
65 11 77 0
65 11 29 0
56 69 33 0
43 69 33 0
43 56 33 0
43 56 69 0
32 6 22 0
20 6 22 0
20 32 22 0
20 32 6 0
41 74 52 0
41 74 31 0
41 74 4 0
41 52 31 0
41 52 4 0
41 31 4 0
74 52 31 0
74 52 4 0
74 31 4 0
52 31 4 0
